94 40 73 2 41 56 55 54 80 26 
82 10 88 8 85 77 12 
68 3 50 30 7 52 13 95 58 
27 89 18 96 93 84 61 6 59 37 42 
92 97 57 15 87 98 60 5 91 16 
81 69 76 79 33 71 35 1 
83 86 44 38 14 17 45 46 
63 90 51 20 32 64 19 
49 36 21 4 39 72 
75 29 24 22 74 31 
48 62 9 66 65 28 
43 99 70 78 34 
23 67 100 
47 11 25 
53 

